challenge_2.smt2.log
** expand-pob: query!0 level: 0 depth: 0 exprID: 1 pobID: none
true

** add-lemma: 0 exprID: 2 pobID: 1
query!0
false


* LEVEL 1

** expand-pob: query!0 level: 1 depth: 0 exprID: 1 pobID: none
true

** expand-pob: fail level: 0 depth: 0 exprID: 1 pobID: 1
true

** add-lemma: 0 exprID: 2 pobID: 1
fail
false

** expand-pob: query!0 level: 1 depth: 0 exprID: 1 pobID: none
true

** add-lemma: 1 exprID: 2 pobID: 1
query!0
false

Propagating


* LEVEL 2

** expand-pob: query!0 level: 2 depth: 0 exprID: 1 pobID: none
true

** expand-pob: fail level: 1 depth: 0 exprID: 1 pobID: 1
true

** expand-pob: inv level: 0 depth: 0 exprID: 369 pobID: 1
(and (= (mod inv_0_n 2) 0) (<= (+ inv_0_n (* (- 2) inv_1_n)) (- 2)))

** add-lemma: 0 exprID: 2 pobID: 369
inv
false

** expand-pob: fail level: 1 depth: 0 exprID: 1 pobID: 1
true

** add-lemma: 1 exprID: 2 pobID: 1
fail
false

** expand-pob: query!0 level: 2 depth: 0 exprID: 1 pobID: none
true

** add-lemma: 2 exprID: 2 pobID: 1
query!0
false

Propagating


* LEVEL 3

** expand-pob: query!0 level: 3 depth: 0 exprID: 1 pobID: none
true

** expand-pob: fail level: 2 depth: 0 exprID: 1 pobID: 1
true

** expand-pob: inv level: 1 depth: 0 exprID: 369 pobID: 1
(and (= (mod inv_0_n 2) 0) (<= (+ inv_0_n (* (- 2) inv_1_n)) (- 2)))

** expand-pob: inv0 level: 0 depth: 0 exprID: 829 pobID: 369
(and (<= (+ inv0_0_n (* (- 2) inv0_1_n)) (- 2)) (= (mod inv0_0_n 2) 0))

** add-lemma: oo exprID: 952 pobID: 829
inv0
(> (+ inv0_0_n (* (- 2) inv0_1_n)) (- 1))

** expand-pob: inv level: 1 depth: 0 exprID: 369 pobID: 1
(and (= (mod inv_0_n 2) 0) (<= (+ inv_0_n (* (- 2) inv_1_n)) (- 2)))

** add-lemma: 1 exprID: 1017 pobID: 369
inv
(> (+ inv_0_n (* (- 2) inv_1_n)) (- 1))

** expand-pob: fail level: 2 depth: 0 exprID: 1 pobID: 1
true

** expand-pob: inv level: 1 depth: 0 exprID: 1050 pobID: 1
(and (= (mod inv_0_n 2) 0) (>= (+ inv_0_n (* (- 2) inv_1_n)) 2))

** expand-pob: inv0 level: 0 depth: 0 exprID: 1131 pobID: 1050
(and (= (mod inv0_0_n 2) 0) (>= (+ inv0_0_n (* (- 2) inv0_1_n)) 2))

** add-lemma: oo exprID: 1171 pobID: 1131
inv0
(< (+ inv0_0_n (* (- 2) inv0_1_n)) 1)

** expand-pob: inv level: 1 depth: 0 exprID: 1050 pobID: 1
(and (= (mod inv_0_n 2) 0) (>= (+ inv_0_n (* (- 2) inv_1_n)) 2))

** add-lemma: 1 exprID: 1212 pobID: 1050
inv
(< (+ inv_0_n (* (- 2) inv_1_n)) 1)

** expand-pob: fail level: 2 depth: 0 exprID: 1 pobID: 1
true

** add-lemma: 2 exprID: 2 pobID: 1
fail
false

** expand-pob: query!0 level: 3 depth: 0 exprID: 1 pobID: none
true

** add-lemma: 3 exprID: 2 pobID: 1
query!0
false

Propagating


* LEVEL 4

** expand-pob: query!0 level: 4 depth: 0 exprID: 1 pobID: none
true

** expand-pob: fail level: 3 depth: 0 exprID: 1 pobID: 1
true

** expand-pob: inv level: 2 depth: 0 exprID: 1050 pobID: 1
(and (= (mod inv_0_n 2) 0) (>= (+ inv_0_n (* (- 2) inv_1_n)) 2))

** add-lemma: 2 exprID: 1127 pobID: 1050
inv
(< (+ inv_0_n (* (- 2) inv_1_n)) 2)

** expand-pob: fail level: 3 depth: 0 exprID: 1 pobID: 1
true

** expand-pob: inv level: 2 depth: 0 exprID: 369 pobID: 1
(and (= (mod inv_0_n 2) 0) (<= (+ inv_0_n (* (- 2) inv_1_n)) (- 2)))

** add-lemma: 2 exprID: 822 pobID: 369
inv
(> (+ inv_0_n (* (- 2) inv_1_n)) (- 2))

** expand-pob: fail level: 3 depth: 0 exprID: 1 pobID: 1
true

** add-lemma: 3 exprID: 2 pobID: 1
fail
false

** expand-pob: query!0 level: 4 depth: 0 exprID: 1 pobID: none
true

** add-lemma: 4 exprID: 2 pobID: 1
query!0
false

Propagating


* LEVEL 5

** expand-pob: query!0 level: 5 depth: 0 exprID: 1 pobID: none
true

** expand-pob: fail level: 4 depth: 0 exprID: 1 pobID: 1
true

** expand-pob: inv level: 3 depth: 0 exprID: 1050 pobID: 1
(and (= (mod inv_0_n 2) 0) (>= (+ inv_0_n (* (- 2) inv_1_n)) 2))

** expand-pob: inv level: 3 depth: 0 exprID: 1050 pobID: 1
(and (= (mod inv_0_n 2) 0) (>= (+ inv_0_n (* (- 2) inv_1_n)) 2))

** expand-pob: inv level: 2 depth: 0 exprID: 1601 pobID: 1050
(and (>= (+ inv_0_n (* (- 2) inv_1_n)) 1)
     (> (mod inv_0_n 2) 0)
     (= (mod (+ 1 inv_0_n) 2) 0))

** expand-pob: inv level: 1 depth: 0 exprID: 1940 pobID: 1601
(and (= (mod inv_0_n 2) 0) (>= (mod (+ 1 inv_0_n) 2) 1))

** expand-pob: inv level: 2 depth: 0 exprID: 1601 pobID: 1050
(and (>= (+ inv_0_n (* (- 2) inv_1_n)) 1)
     (> (mod inv_0_n 2) 0)
     (= (mod (+ 1 inv_0_n) 2) 0))

** add-lemma: 2 exprID: 1212 pobID: 1050
inv
(< (+ inv_0_n (* (- 2) inv_1_n)) 1)

** expand-pob: inv CONJ level: 1 depth: 0 exprID: 2252 pobID: 1
(and (> (mod inv_0_n 2) 0) (= (mod (+ 1 inv_0_n) 2) 0))

** expand-pob: inv CONJ level: 1 depth: 0 exprID: 2252 pobID: 1
(and (> (mod inv_0_n 2) 0) (= (mod (+ 1 inv_0_n) 2) 0))

** add-lemma: 1 exprID: 2040 pobID: 2252
inv
(not (= (mod (+ 1 inv_0_n) 2) 0))

** expand-pob: inv CONJ level: 2 depth: 1 exprID: 2252 pobID: 1
(and (> (mod inv_0_n 2) 0) (= (mod (+ 1 inv_0_n) 2) 0))

** expand-pob: inv level: 3 depth: 0 exprID: 1050 pobID: 1
(and (= (mod inv_0_n 2) 0) (>= (+ inv_0_n (* (- 2) inv_1_n)) 2))

** add-lemma: 3 exprID: 1127 pobID: 1050
inv
(< (+ inv_0_n (* (- 2) inv_1_n)) 2)

** expand-pob: inv CONJ level: 2 depth: 0 exprID: 361 pobID: 1
(= (mod inv_0_n 2) 0)

** expand-pob: fail level: 4 depth: 0 exprID: 1 pobID: 1
true

** expand-pob: inv level: 3 depth: 0 exprID: 1 pobID: 1
true

** expand-pob: fail level: 4 depth: 0 exprID: 1 pobID: 1
true

** expand-pob: inv level: 3 depth: 0 exprID: 369 pobID: 1
(and (= (mod inv_0_n 2) 0) (<= (+ inv_0_n (* (- 2) inv_1_n)) (- 2)))

** expand-pob: inv level: 2 depth: 0 exprID: 1862 pobID: 369
(= (mod (+ 1 inv_0_n) 2) 0)

** expand-pob: inv level: 3 depth: 0 exprID: 369 pobID: 1
(and (= (mod inv_0_n 2) 0) (<= (+ inv_0_n (* (- 2) inv_1_n)) (- 2)))

** add-lemma: 3 exprID: 822 pobID: 369
inv
(> (+ inv_0_n (* (- 2) inv_1_n)) (- 2))

** expand-pob: fail level: 4 depth: 0 exprID: 1 pobID: 1
true

** add-lemma: 4 exprID: 2 pobID: 1
fail
false

** expand-pob: query!0 level: 5 depth: 0 exprID: 1 pobID: none
true

** add-lemma: 5 exprID: 2 pobID: 1
query!0
false

Propagating


* LEVEL 6

** expand-pob: query!0 level: 6 depth: 0 exprID: 1 pobID: none
true

** expand-pob: fail level: 5 depth: 0 exprID: 1 pobID: 1
true

** expand-pob: inv level: 4 depth: 0 exprID: 1 pobID: 1
true

** expand-pob: fail level: 5 depth: 0 exprID: 1 pobID: 1
true

** expand-pob: inv level: 4 depth: 0 exprID: 369 pobID: 1
(and (= (mod inv_0_n 2) 0) (<= (+ inv_0_n (* (- 2) inv_1_n)) (- 2)))

** expand-pob: inv level: 3 depth: 0 exprID: 1862 pobID: 369
(= (mod (+ 1 inv_0_n) 2) 0)

** expand-pob: inv level: 2 depth: 0 exprID: 1851 pobID: 1862
(> (mod inv_0_n 2) 0)

** expand-pob: inv level: 4 depth: 0 exprID: 369 pobID: 1
(and (= (mod inv_0_n 2) 0) (<= (+ inv_0_n (* (- 2) inv_1_n)) (- 2)))

** add-lemma: 4 exprID: 822 pobID: 369
inv
(> (+ inv_0_n (* (- 2) inv_1_n)) (- 2))

** expand-pob: fail level: 5 depth: 0 exprID: 1 pobID: 1
true

** expand-pob: inv level: 4 depth: 0 exprID: 1050 pobID: 1
(and (= (mod inv_0_n 2) 0) (>= (+ inv_0_n (* (- 2) inv_1_n)) 2))

** expand-pob: inv level: 3 depth: 0 exprID: 1601 pobID: 1050
(and (>= (+ inv_0_n (* (- 2) inv_1_n)) 1)
     (> (mod inv_0_n 2) 0)
     (= (mod (+ 1 inv_0_n) 2) 0))

** expand-pob: inv level: 2 depth: 0 exprID: 1940 pobID: 1601
(and (= (mod inv_0_n 2) 0) (>= (mod (+ 1 inv_0_n) 2) 1))

** expand-pob: inv level: 3 depth: 0 exprID: 1601 pobID: 1050
(and (>= (+ inv_0_n (* (- 2) inv_1_n)) 1)
     (> (mod inv_0_n 2) 0)
     (= (mod (+ 1 inv_0_n) 2) 0))

** add-lemma: 3 exprID: 1212 pobID: 1050
inv
(< (+ inv_0_n (* (- 2) inv_1_n)) 1)

** expand-pob: inv level: 4 depth: 0 exprID: 1050 pobID: 1
(and (= (mod inv_0_n 2) 0) (>= (+ inv_0_n (* (- 2) inv_1_n)) 2))

** add-lemma: 4 exprID: 1127 pobID: 1050
inv
(< (+ inv_0_n (* (- 2) inv_1_n)) 2)

** expand-pob: fail level: 5 depth: 0 exprID: 1 pobID: 1
true

** add-lemma: 5 exprID: 2 pobID: 1
fail
false

** expand-pob: query!0 level: 6 depth: 0 exprID: 1 pobID: none
true

** add-lemma: 6 exprID: 2 pobID: 1
query!0
false

Propagating


* LEVEL 7

** expand-pob: query!0 level: 7 depth: 0 exprID: 1 pobID: none
true

** expand-pob: fail level: 6 depth: 0 exprID: 1 pobID: 1
true

** expand-pob: inv level: 5 depth: 0 exprID: 1 pobID: 1
true

** expand-pob: fail level: 6 depth: 0 exprID: 1 pobID: 1
true

** expand-pob: inv level: 5 depth: 0 exprID: 369 pobID: 1
(and (= (mod inv_0_n 2) 0) (<= (+ inv_0_n (* (- 2) inv_1_n)) (- 2)))

** expand-pob: inv level: 4 depth: 0 exprID: 1862 pobID: 369
(= (mod (+ 1 inv_0_n) 2) 0)

** expand-pob: inv level: 5 depth: 0 exprID: 369 pobID: 1
(and (= (mod inv_0_n 2) 0) (<= (+ inv_0_n (* (- 2) inv_1_n)) (- 2)))

** add-lemma: 5 exprID: 822 pobID: 369
inv
(> (+ inv_0_n (* (- 2) inv_1_n)) (- 2))

** expand-pob: fail level: 6 depth: 0 exprID: 1 pobID: 1
true

** expand-pob: inv level: 5 depth: 0 exprID: 1050 pobID: 1
(and (= (mod inv_0_n 2) 0) (>= (+ inv_0_n (* (- 2) inv_1_n)) 2))

** expand-pob: inv level: 5 depth: 0 exprID: 1050 pobID: 1
(and (= (mod inv_0_n 2) 0) (>= (+ inv_0_n (* (- 2) inv_1_n)) 2))

** expand-pob: inv level: 4 depth: 0 exprID: 1601 pobID: 1050
(and (>= (+ inv_0_n (* (- 2) inv_1_n)) 1)
     (> (mod inv_0_n 2) 0)
     (= (mod (+ 1 inv_0_n) 2) 0))

** expand-pob: inv level: 4 depth: 0 exprID: 1601 pobID: 1050
(and (>= (+ inv_0_n (* (- 2) inv_1_n)) 1)
     (> (mod inv_0_n 2) 0)
     (= (mod (+ 1 inv_0_n) 2) 0))

** add-lemma: 4 exprID: 1212 pobID: 1050
inv
(< (+ inv_0_n (* (- 2) inv_1_n)) 1)

** expand-pob: inv level: 5 depth: 0 exprID: 1050 pobID: 1
(and (= (mod inv_0_n 2) 0) (>= (+ inv_0_n (* (- 2) inv_1_n)) 2))

** add-lemma: 5 exprID: 1127 pobID: 1050
inv
(< (+ inv_0_n (* (- 2) inv_1_n)) 2)

** expand-pob: fail level: 6 depth: 0 exprID: 1 pobID: 1
true

** add-lemma: 6 exprID: 2 pobID: 1
fail
false

** expand-pob: query!0 level: 7 depth: 0 exprID: 1 pobID: none
true

** add-lemma: 7 exprID: 2 pobID: 1
query!0
false

Propagating


* LEVEL 8

** expand-pob: query!0 level: 8 depth: 0 exprID: 1 pobID: none
true

** expand-pob: fail level: 7 depth: 0 exprID: 1 pobID: 1
true

** expand-pob: inv level: 6 depth: 0 exprID: 1 pobID: 1
true

** expand-pob: fail level: 7 depth: 0 exprID: 1 pobID: 1
true

** expand-pob: inv level: 6 depth: 0 exprID: 369 pobID: 1
(and (= (mod inv_0_n 2) 0) (<= (+ inv_0_n (* (- 2) inv_1_n)) (- 2)))

** expand-pob: inv level: 5 depth: 0 exprID: 1862 pobID: 369
(= (mod (+ 1 inv_0_n) 2) 0)

** expand-pob: inv level: 6 depth: 0 exprID: 369 pobID: 1
(and (= (mod inv_0_n 2) 0) (<= (+ inv_0_n (* (- 2) inv_1_n)) (- 2)))

** add-lemma: 6 exprID: 822 pobID: 369
inv
(> (+ inv_0_n (* (- 2) inv_1_n)) (- 2))

** expand-pob: fail level: 7 depth: 0 exprID: 1 pobID: 1
true

** expand-pob: inv level: 6 depth: 0 exprID: 1050 pobID: 1
(and (= (mod inv_0_n 2) 0) (>= (+ inv_0_n (* (- 2) inv_1_n)) 2))

** expand-pob: inv level: 5 depth: 0 exprID: 1601 pobID: 1050
(and (>= (+ inv_0_n (* (- 2) inv_1_n)) 1)
     (> (mod inv_0_n 2) 0)
     (= (mod (+ 1 inv_0_n) 2) 0))

** expand-pob: inv level: 4 depth: 0 exprID: 1940 pobID: 1601
(and (= (mod inv_0_n 2) 0) (>= (mod (+ 1 inv_0_n) 2) 1))

** expand-pob: inv level: 5 depth: 0 exprID: 1601 pobID: 1050
(and (>= (+ inv_0_n (* (- 2) inv_1_n)) 1)
     (> (mod inv_0_n 2) 0)
     (= (mod (+ 1 inv_0_n) 2) 0))

** add-lemma: 5 exprID: 1212 pobID: 1050
inv
(< (+ inv_0_n (* (- 2) inv_1_n)) 1)

** expand-pob: inv level: 6 depth: 0 exprID: 1050 pobID: 1
(and (= (mod inv_0_n 2) 0) (>= (+ inv_0_n (* (- 2) inv_1_n)) 2))

** add-lemma: 6 exprID: 1127 pobID: 1050
inv
(< (+ inv_0_n (* (- 2) inv_1_n)) 2)

** expand-pob: fail level: 7 depth: 0 exprID: 1 pobID: 1
true

** add-lemma: 7 exprID: 2 pobID: 1
fail
false

** expand-pob: query!0 level: 8 depth: 0 exprID: 1 pobID: none
true

** add-lemma: 8 exprID: 2 pobID: 1
query!0
false

Propagating


* LEVEL 9

** expand-pob: query!0 level: 9 depth: 0 exprID: 1 pobID: none
true

** expand-pob: fail level: 8 depth: 0 exprID: 1 pobID: 1
true

** expand-pob: inv level: 7 depth: 0 exprID: 1 pobID: 1
true

** expand-pob: fail level: 8 depth: 0 exprID: 1 pobID: 1
true

** expand-pob: inv level: 7 depth: 0 exprID: 369 pobID: 1
(and (= (mod inv_0_n 2) 0) (<= (+ inv_0_n (* (- 2) inv_1_n)) (- 2)))

** expand-pob: inv level: 6 depth: 0 exprID: 1862 pobID: 369
(= (mod (+ 1 inv_0_n) 2) 0)

** expand-pob: inv level: 7 depth: 0 exprID: 369 pobID: 1
(and (= (mod inv_0_n 2) 0) (<= (+ inv_0_n (* (- 2) inv_1_n)) (- 2)))

** add-lemma: 7 exprID: 822 pobID: 369
inv
(> (+ inv_0_n (* (- 2) inv_1_n)) (- 2))

** expand-pob: fail level: 8 depth: 0 exprID: 1 pobID: 1
true

** expand-pob: inv level: 7 depth: 0 exprID: 1050 pobID: 1
(and (= (mod inv_0_n 2) 0) (>= (+ inv_0_n (* (- 2) inv_1_n)) 2))

** expand-pob: inv level: 7 depth: 0 exprID: 1050 pobID: 1
(and (= (mod inv_0_n 2) 0) (>= (+ inv_0_n (* (- 2) inv_1_n)) 2))

** expand-pob: inv level: 6 depth: 0 exprID: 1601 pobID: 1050
(and (>= (+ inv_0_n (* (- 2) inv_1_n)) 1)
     (> (mod inv_0_n 2) 0)
     (= (mod (+ 1 inv_0_n) 2) 0))

** expand-pob: inv level: 5 depth: 0 exprID: 1940 pobID: 1601
(and (= (mod inv_0_n 2) 0) (>= (mod (+ 1 inv_0_n) 2) 1))

** expand-pob: inv level: 6 depth: 0 exprID: 1601 pobID: 1050
(and (>= (+ inv_0_n (* (- 2) inv_1_n)) 1)
     (> (mod inv_0_n 2) 0)
     (= (mod (+ 1 inv_0_n) 2) 0))

** add-lemma: 6 exprID: 1212 pobID: 1050
inv
(< (+ inv_0_n (* (- 2) inv_1_n)) 1)

** expand-pob: inv level: 7 depth: 0 exprID: 1050 pobID: 1
(and (= (mod inv_0_n 2) 0) (>= (+ inv_0_n (* (- 2) inv_1_n)) 2))

** add-lemma: 7 exprID: 1127 pobID: 1050
inv
(< (+ inv_0_n (* (- 2) inv_1_n)) 2)

** expand-pob: fail level: 8 depth: 0 exprID: 1 pobID: 1
true

** add-lemma: 8 exprID: 2 pobID: 1
fail
false

** expand-pob: query!0 level: 9 depth: 0 exprID: 1 pobID: none
true

** add-lemma: 9 exprID: 2 pobID: 1
query!0
false

Propagating


* LEVEL 10

** expand-pob: query!0 level: 10 depth: 0 exprID: 1 pobID: none
true

** expand-pob: fail level: 9 depth: 0 exprID: 1 pobID: 1
true

** expand-pob: inv level: 8 depth: 0 exprID: 369 pobID: 1
(and (= (mod inv_0_n 2) 0) (<= (+ inv_0_n (* (- 2) inv_1_n)) (- 2)))

** expand-pob: inv level: 7 depth: 0 exprID: 1862 pobID: 369
(= (mod (+ 1 inv_0_n) 2) 0)

** expand-pob: inv level: 8 depth: 0 exprID: 369 pobID: 1
(and (= (mod inv_0_n 2) 0) (<= (+ inv_0_n (* (- 2) inv_1_n)) (- 2)))

** add-lemma: 8 exprID: 822 pobID: 369
inv
(> (+ inv_0_n (* (- 2) inv_1_n)) (- 2))

** expand-pob: fail level: 9 depth: 0 exprID: 1 pobID: 1
true

** expand-pob: inv level: 8 depth: 0 exprID: 1 pobID: 1
true

** expand-pob: fail level: 9 depth: 0 exprID: 1 pobID: 1
true

** expand-pob: inv level: 8 depth: 0 exprID: 1050 pobID: 1
(and (= (mod inv_0_n 2) 0) (>= (+ inv_0_n (* (- 2) inv_1_n)) 2))

** expand-pob: inv level: 7 depth: 0 exprID: 1601 pobID: 1050
(and (>= (+ inv_0_n (* (- 2) inv_1_n)) 1)
     (> (mod inv_0_n 2) 0)
     (= (mod (+ 1 inv_0_n) 2) 0))

** expand-pob: inv level: 6 depth: 0 exprID: 1940 pobID: 1601
(and (= (mod inv_0_n 2) 0) (>= (mod (+ 1 inv_0_n) 2) 1))

** expand-pob: inv level: 7 depth: 0 exprID: 1601 pobID: 1050
(and (>= (+ inv_0_n (* (- 2) inv_1_n)) 1)
     (> (mod inv_0_n 2) 0)
     (= (mod (+ 1 inv_0_n) 2) 0))

** add-lemma: 7 exprID: 1212 pobID: 1050
inv
(< (+ inv_0_n (* (- 2) inv_1_n)) 1)

** expand-pob: inv level: 8 depth: 0 exprID: 1050 pobID: 1
(and (= (mod inv_0_n 2) 0) (>= (+ inv_0_n (* (- 2) inv_1_n)) 2))

** add-lemma: 8 exprID: 1127 pobID: 1050
inv
(< (+ inv_0_n (* (- 2) inv_1_n)) 2)

** expand-pob: fail level: 9 depth: 0 exprID: 1 pobID: 1
true

** add-lemma: 9 exprID: 2 pobID: 1
fail
false

** expand-pob: query!0 level: 10 depth: 0 exprID: 1 pobID: none
true

** add-lemma: 10 exprID: 2 pobID: 1
query!0
false

Propagating


* LEVEL 11

** expand-pob: query!0 level: 11 depth: 0 exprID: 1 pobID: none
true

** expand-pob: fail level: 10 depth: 0 exprID: 1 pobID: 1
true

** expand-pob: inv level: 9 depth: 0 exprID: 1050 pobID: 1
(and (= (mod inv_0_n 2) 0) (>= (+ inv_0_n (* (- 2) inv_1_n)) 2))

** expand-pob: inv level: 8 depth: 0 exprID: 1601 pobID: 1050
(and (>= (+ inv_0_n (* (- 2) inv_1_n)) 1)
     (> (mod inv_0_n 2) 0)
     (= (mod (+ 1 inv_0_n) 2) 0))

** expand-pob: inv level: 7 depth: 0 exprID: 1940 pobID: 1601
(and (= (mod inv_0_n 2) 0) (>= (mod (+ 1 inv_0_n) 2) 1))

** expand-pob: inv level: 8 depth: 0 exprID: 1601 pobID: 1050
(and (>= (+ inv_0_n (* (- 2) inv_1_n)) 1)
     (> (mod inv_0_n 2) 0)
     (= (mod (+ 1 inv_0_n) 2) 0))

** add-lemma: 8 exprID: 1212 pobID: 1050
inv
(< (+ inv_0_n (* (- 2) inv_1_n)) 1)

** expand-pob: inv level: 9 depth: 0 exprID: 1050 pobID: 1
(and (= (mod inv_0_n 2) 0) (>= (+ inv_0_n (* (- 2) inv_1_n)) 2))

** add-lemma: 9 exprID: 1127 pobID: 1050
inv
(< (+ inv_0_n (* (- 2) inv_1_n)) 2)

** expand-pob: fail level: 10 depth: 0 exprID: 1 pobID: 1
true

** expand-pob: inv level: 9 depth: 0 exprID: 369 pobID: 1
(and (= (mod inv_0_n 2) 0) (<= (+ inv_0_n (* (- 2) inv_1_n)) (- 2)))

** expand-pob: inv level: 8 depth: 0 exprID: 1862 pobID: 369
(= (mod (+ 1 inv_0_n) 2) 0)

** expand-pob: inv level: 9 depth: 0 exprID: 369 pobID: 1
(and (= (mod inv_0_n 2) 0) (<= (+ inv_0_n (* (- 2) inv_1_n)) (- 2)))

** add-lemma: 9 exprID: 822 pobID: 369
inv
(> (+ inv_0_n (* (- 2) inv_1_n)) (- 2))

** expand-pob: fail level: 10 depth: 0 exprID: 1 pobID: 1
true

** add-lemma: 10 exprID: 2 pobID: 1
fail
false

** expand-pob: query!0 level: 11 depth: 0 exprID: 1 pobID: none
true

** add-lemma: 11 exprID: 2 pobID: 1
query!0
false

Propagating


* LEVEL 12

** expand-pob: query!0 level: 12 depth: 0 exprID: 1 pobID: none
true

** expand-pob: fail level: 11 depth: 0 exprID: 1 pobID: 1
true

** expand-pob: inv level: 10 depth: 0 exprID: 1 pobID: 1
true

** expand-pob: fail level: 11 depth: 0 exprID: 1 pobID: 1
true

** expand-pob: inv level: 10 depth: 0 exprID: 369 pobID: 1
(and (= (mod inv_0_n 2) 0) (<= (+ inv_0_n (* (- 2) inv_1_n)) (- 2)))

** expand-pob: inv level: 9 depth: 0 exprID: 361 pobID: 369
(= (mod inv_0_n 2) 0)

** expand-pob: inv level: 8 depth: 0 exprID: 361 pobID: 361
(= (mod inv_0_n 2) 0)

** expand-pob: inv level: 7 depth: 0 exprID: 361 pobID: 361
(= (mod inv_0_n 2) 0)

** expand-pob: inv level: 6 depth: 0 exprID: 361 pobID: 361
(= (mod inv_0_n 2) 0)

** expand-pob: inv level: 5 depth: 0 exprID: 361 pobID: 361
(= (mod inv_0_n 2) 0)

** expand-pob: inv level: 4 depth: 0 exprID: 361 pobID: 361
(= (mod inv_0_n 2) 0)

** expand-pob: inv level: 3 depth: 0 exprID: 361 pobID: 361
(= (mod inv_0_n 2) 0)

** expand-pob: inv level: 2 depth: 0 exprID: 361 pobID: 361
(= (mod inv_0_n 2) 0)

** expand-pob: inv level: 10 depth: 0 exprID: 369 pobID: 1
(and (= (mod inv_0_n 2) 0) (<= (+ inv_0_n (* (- 2) inv_1_n)) (- 2)))

** add-lemma: 10 exprID: 822 pobID: 369
inv
(> (+ inv_0_n (* (- 2) inv_1_n)) (- 2))

** expand-pob: fail level: 11 depth: 0 exprID: 1 pobID: 1
true

** expand-pob: inv level: 10 depth: 0 exprID: 1050 pobID: 1
(and (= (mod inv_0_n 2) 0) (>= (+ inv_0_n (* (- 2) inv_1_n)) 2))

** expand-pob: inv level: 9 depth: 0 exprID: 1601 pobID: 1050
(and (>= (+ inv_0_n (* (- 2) inv_1_n)) 1)
     (> (mod inv_0_n 2) 0)
     (= (mod (+ 1 inv_0_n) 2) 0))

** expand-pob: inv level: 9 depth: 0 exprID: 1601 pobID: 1050
(and (>= (+ inv_0_n (* (- 2) inv_1_n)) 1)
     (> (mod inv_0_n 2) 0)
     (= (mod (+ 1 inv_0_n) 2) 0))

** add-lemma: 9 exprID: 1212 pobID: 1050
inv
(< (+ inv_0_n (* (- 2) inv_1_n)) 1)

** expand-pob: inv level: 10 depth: 0 exprID: 1050 pobID: 1
(and (= (mod inv_0_n 2) 0) (>= (+ inv_0_n (* (- 2) inv_1_n)) 2))

** add-lemma: 10 exprID: 1127 pobID: 1050
inv
(< (+ inv_0_n (* (- 2) inv_1_n)) 2)

** expand-pob: fail level: 11 depth: 0 exprID: 1 pobID: 1
true

** add-lemma: 11 exprID: 2 pobID: 1
fail
false

** expand-pob: query!0 level: 12 depth: 0 exprID: 1 pobID: none
true

** add-lemma: 12 exprID: 2 pobID: 1
query!0
false

Propagating


* LEVEL 13

** expand-pob: query!0 level: 13 depth: 0 exprID: 1 pobID: none
true

** expand-pob: fail level: 12 depth: 0 exprID: 1 pobID: 1
true

** expand-pob: inv level: 11 depth: 0 exprID: 1 pobID: 1
true

** expand-pob: fail level: 12 depth: 0 exprID: 1 pobID: 1
true

** expand-pob: inv level: 11 depth: 0 exprID: 369 pobID: 1
(and (= (mod inv_0_n 2) 0) (<= (+ inv_0_n (* (- 2) inv_1_n)) (- 2)))

** expand-pob: inv level: 10 depth: 0 exprID: 361 pobID: 369
(= (mod inv_0_n 2) 0)

** expand-pob: inv level: 9 depth: 0 exprID: 361 pobID: 361
(= (mod inv_0_n 2) 0)

** expand-pob: inv level: 8 depth: 0 exprID: 361 pobID: 361
(= (mod inv_0_n 2) 0)

** expand-pob: inv level: 7 depth: 0 exprID: 361 pobID: 361
(= (mod inv_0_n 2) 0)

** expand-pob: inv level: 6 depth: 0 exprID: 361 pobID: 361
(= (mod inv_0_n 2) 0)

** expand-pob: inv level: 5 depth: 0 exprID: 361 pobID: 361
(= (mod inv_0_n 2) 0)

** expand-pob: inv level: 4 depth: 0 exprID: 361 pobID: 361
(= (mod inv_0_n 2) 0)

** expand-pob: inv level: 3 depth: 0 exprID: 361 pobID: 361
(= (mod inv_0_n 2) 0)

** expand-pob: inv level: 2 depth: 0 exprID: 361 pobID: 361
(= (mod inv_0_n 2) 0)

** expand-pob: inv level: 3 depth: 0 exprID: 361 pobID: 361
(= (mod inv_0_n 2) 0)

** expand-pob: inv level: 11 depth: 0 exprID: 369 pobID: 1
(and (= (mod inv_0_n 2) 0) (<= (+ inv_0_n (* (- 2) inv_1_n)) (- 2)))

** add-lemma: 11 exprID: 822 pobID: 369
inv
(> (+ inv_0_n (* (- 2) inv_1_n)) (- 2))

** expand-pob: fail level: 12 depth: 0 exprID: 1 pobID: 1
true

** expand-pob: inv level: 11 depth: 0 exprID: 1050 pobID: 1
(and (= (mod inv_0_n 2) 0) (>= (+ inv_0_n (* (- 2) inv_1_n)) 2))

** expand-pob: inv level: 10 depth: 0 exprID: 1601 pobID: 1050
(and (>= (+ inv_0_n (* (- 2) inv_1_n)) 1)
     (> (mod inv_0_n 2) 0)
     (= (mod (+ 1 inv_0_n) 2) 0))

** expand-pob: inv level: 9 depth: 0 exprID: 1940 pobID: 1601
(and (= (mod inv_0_n 2) 0) (>= (mod (+ 1 inv_0_n) 2) 1))

** expand-pob: inv level: 10 depth: 0 exprID: 1601 pobID: 1050
(and (>= (+ inv_0_n (* (- 2) inv_1_n)) 1)
     (> (mod inv_0_n 2) 0)
     (= (mod (+ 1 inv_0_n) 2) 0))

** add-lemma: 10 exprID: 1212 pobID: 1050
inv
(< (+ inv_0_n (* (- 2) inv_1_n)) 1)

** expand-pob: inv level: 11 depth: 0 exprID: 1050 pobID: 1
(and (= (mod inv_0_n 2) 0) (>= (+ inv_0_n (* (- 2) inv_1_n)) 2))

** add-lemma: 11 exprID: 1127 pobID: 1050
inv
(< (+ inv_0_n (* (- 2) inv_1_n)) 2)

** expand-pob: fail level: 12 depth: 0 exprID: 1 pobID: 1
true

** add-lemma: 12 exprID: 2 pobID: 1
fail
false

** expand-pob: query!0 level: 13 depth: 0 exprID: 1 pobID: none
true

** add-lemma: 13 exprID: 2 pobID: 1
query!0
false

Propagating


* LEVEL 14

** expand-pob: query!0 level: 14 depth: 0 exprID: 1 pobID: none
true

** expand-pob: fail level: 13 depth: 0 exprID: 1 pobID: 1
true

** expand-pob: inv level: 12 depth: 0 exprID: 369 pobID: 1
(and (= (mod inv_0_n 2) 0) (<= (+ inv_0_n (* (- 2) inv_1_n)) (- 2)))

** expand-pob: inv level: 11 depth: 0 exprID: 361 pobID: 369
(= (mod inv_0_n 2) 0)

** expand-pob: inv level: 10 depth: 0 exprID: 361 pobID: 361
(= (mod inv_0_n 2) 0)

** expand-pob: inv level: 9 depth: 0 exprID: 361 pobID: 361
(= (mod inv_0_n 2) 0)

** expand-pob: inv level: 8 depth: 0 exprID: 361 pobID: 361
(= (mod inv_0_n 2) 0)

** expand-pob: inv level: 7 depth: 0 exprID: 361 pobID: 361
(= (mod inv_0_n 2) 0)

** expand-pob: inv level: 6 depth: 0 exprID: 361 pobID: 361
(= (mod inv_0_n 2) 0)

** expand-pob: inv level: 5 depth: 0 exprID: 361 pobID: 361
(= (mod inv_0_n 2) 0)

** expand-pob: inv level: 4 depth: 0 exprID: 361 pobID: 361
(= (mod inv_0_n 2) 0)

** expand-pob: inv level: 3 depth: 0 exprID: 361 pobID: 361
(= (mod inv_0_n 2) 0)

** expand-pob: inv level: 2 depth: 0 exprID: 361 pobID: 361
(= (mod inv_0_n 2) 0)

** expand-pob: inv level: 3 depth: 0 exprID: 361 pobID: 361
(= (mod inv_0_n 2) 0)

** expand-pob: inv level: 12 depth: 0 exprID: 369 pobID: 1
(and (= (mod inv_0_n 2) 0) (<= (+ inv_0_n (* (- 2) inv_1_n)) (- 2)))

** add-lemma: 12 exprID: 822 pobID: 369
inv
(> (+ inv_0_n (* (- 2) inv_1_n)) (- 2))

** expand-pob: fail level: 13 depth: 0 exprID: 1 pobID: 1
true

** expand-pob: inv level: 12 depth: 0 exprID: 1050 pobID: 1
(and (= (mod inv_0_n 2) 0) (>= (+ inv_0_n (* (- 2) inv_1_n)) 2))

** expand-pob: inv level: 11 depth: 0 exprID: 1601 pobID: 1050
(and (>= (+ inv_0_n (* (- 2) inv_1_n)) 1)
     (> (mod inv_0_n 2) 0)
     (= (mod (+ 1 inv_0_n) 2) 0))

** expand-pob: inv level: 10 depth: 0 exprID: 1940 pobID: 1601
(and (= (mod inv_0_n 2) 0) (>= (mod (+ 1 inv_0_n) 2) 1))

** expand-pob: inv level: 11 depth: 0 exprID: 1601 pobID: 1050
(and (>= (+ inv_0_n (* (- 2) inv_1_n)) 1)
     (> (mod inv_0_n 2) 0)
     (= (mod (+ 1 inv_0_n) 2) 0))

** add-lemma: 11 exprID: 1212 pobID: 1050
inv
(< (+ inv_0_n (* (- 2) inv_1_n)) 1)

** expand-pob: inv level: 12 depth: 0 exprID: 1050 pobID: 1
(and (= (mod inv_0_n 2) 0) (>= (+ inv_0_n (* (- 2) inv_1_n)) 2))

** add-lemma: 12 exprID: 1127 pobID: 1050
inv
(< (+ inv_0_n (* (- 2) inv_1_n)) 2)

** expand-pob: fail level: 13 depth: 0 exprID: 1 pobID: 1
true

** add-lemma: 13 exprID: 2 pobID: 1
fail
false

** expand-pob: query!0 level: 14 depth: 0 exprID: 1 pobID: none
true

** add-lemma: 14 exprID: 2 pobID: 1
query!0
false

Propagating


* LEVEL 15

** expand-pob: query!0 level: 15 depth: 0 exprID: 1 pobID: none
true

** expand-pob: fail level: 14 depth: 0 exprID: 1 pobID: 1
true

** expand-pob: inv level: 13 depth: 0 exprID: 369 pobID: 1
(and (= (mod inv_0_n 2) 0) (<= (+ inv_0_n (* (- 2) inv_1_n)) (- 2)))

** expand-pob: inv level: 12 depth: 0 exprID: 1862 pobID: 369
(= (mod (+ 1 inv_0_n) 2) 0)

** expand-pob: inv level: 13 depth: 0 exprID: 369 pobID: 1
(and (= (mod inv_0_n 2) 0) (<= (+ inv_0_n (* (- 2) inv_1_n)) (- 2)))

** add-lemma: 13 exprID: 822 pobID: 369
inv
(> (+ inv_0_n (* (- 2) inv_1_n)) (- 2))

** expand-pob: fail level: 14 depth: 0 exprID: 1 pobID: 1
true

** expand-pob: inv level: 13 depth: 0 exprID: 1 pobID: 1
true

** expand-pob: fail level: 14 depth: 0 exprID: 1 pobID: 1
true

** expand-pob: inv level: 13 depth: 0 exprID: 1050 pobID: 1
(and (= (mod inv_0_n 2) 0) (>= (+ inv_0_n (* (- 2) inv_1_n)) 2))

** expand-pob: inv level: 12 depth: 0 exprID: 1601 pobID: 1050
(and (>= (+ inv_0_n (* (- 2) inv_1_n)) 1)
     (> (mod inv_0_n 2) 0)
     (= (mod (+ 1 inv_0_n) 2) 0))

** expand-pob: inv level: 12 depth: 0 exprID: 1601 pobID: 1050
(and (>= (+ inv_0_n (* (- 2) inv_1_n)) 1)
     (> (mod inv_0_n 2) 0)
     (= (mod (+ 1 inv_0_n) 2) 0))

** add-lemma: 12 exprID: 1212 pobID: 1050
inv
(< (+ inv_0_n (* (- 2) inv_1_n)) 1)

** expand-pob: inv level: 13 depth: 0 exprID: 1050 pobID: 1
(and (= (mod inv_0_n 2) 0) (>= (+ inv_0_n (* (- 2) inv_1_n)) 2))

** add-lemma: 13 exprID: 1127 pobID: 1050
inv
(< (+ inv_0_n (* (- 2) inv_1_n)) 2)

** expand-pob: fail level: 14 depth: 0 exprID: 1 pobID: 1
true

** add-lemma: 14 exprID: 2 pobID: 1
fail
false

** expand-pob: query!0 level: 15 depth: 0 exprID: 1 pobID: none
true

** add-lemma: 15 exprID: 2 pobID: 1
query!0
false

Propagating

** add-lemma: 13 exprID: 1212 pobID: 1050
inv
(< (+ inv_0_n (* (- 2) inv_1_n)) 1)

** add-lemma: oo exprID: 2 pobID: 1
fail
false

** add-lemma: oo exprID: 2 pobID: 1
query!0
false

** add-lemma: oo exprID: 822 pobID: 369
inv
(> (+ inv_0_n (* (- 2) inv_1_n)) (- 2))

** add-lemma: oo exprID: 1127 pobID: 1050
inv
(< (+ inv_0_n (* (- 2) inv_1_n)) 2)

** add-lemma: oo exprID: 1212 pobID: 1050
inv
(< (+ inv_0_n (* (- 2) inv_1_n)) 1)

